%%% static parameters %%%
timespan = 1;
Fact = [3];
Distr1 = [10];
Distr2 = [20];
Clients_N = [40];
Demand_W = [15];
Lt0 = [4];
Lt1 = [4];
SS_ = [0.85];
DS_D = [7];
K = [200];
MA = [500];
%%% dynamic parameters %%%
lost_ratio_sales_ret_th = 0.2754326642109989;
lost_ratio_sales_ret_w = 98;
lost_ratio_sales_dis_th = 0.27744348453465917;
lost_ratio_sales_dis_w = 84;
lost_ratio_sales_fac_th = 0.8324695914542206;
lost_ratio_sales_fac_w = 93;
stock_customer_MA_mean_relative_th = 0.11938760644361968;
stock_customer_MA_mean_relative_w = 71;
stock_distributor_MA_mean_relative_th = 0.12157435977121178;
stock_distributor_MA_mean_relative_w = 81;
stock_retailer_MA_mean_relative_th = 0.016147553639577317;
stock_retailer_MA_mean_relative_w = 85;
stock_factory_MA_mean_relative_th = 0.5322680180422358;
stock_factory_MA_mean_relative_w = 35;
